c Reduced graph for p14 generated by Cyril Grelier
p edge 31 110
e 1 2
e 1 6
e 1 9
e 1 10
e 1 14
e 1 21
e 2 6
e 2 9
e 2 16
e 2 20
e 3 8
e 3 9
e 3 13
e 3 15
e 3 22
e 3 25
e 3 27
e 3 29
e 3 30
e 4 13
e 4 14
e 4 17
e 4 18
e 4 19
e 4 28
e 4 30
e 5 6
e 5 19
e 5 21
e 5 22
e 5 23
e 5 26
e 5 27
e 6 9
e 6 22
e 6 23
e 6 26
e 7 12
e 7 20
e 7 23
e 7 24
e 7 25
e 7 28
e 7 29
e 8 9
e 8 13
e 8 16
e 8 17
e 8 26
e 8 27
e 8 29
e 8 31
e 9 13
e 9 27
e 9 29
e 10 11
e 10 12
e 10 14
e 10 18
e 10 21
e 11 12
e 11 15
e 11 18
e 11 24
e 11 31
e 12 18
e 12 25
e 12 28
e 13 14
e 13 27
e 13 28
e 13 29
e 14 21
e 14 28
e 15 22
e 15 24
e 15 25
e 15 30
e 15 31
e 16 17
e 16 20
e 16 26
e 16 31
e 17 18
e 17 19
e 17 26
e 17 30
e 17 31
e 18 19
e 18 30
e 19 21
e 19 27
e 19 30
e 20 23
e 20 24
e 20 29
e 21 27
e 22 23
e 22 25
e 22 26
e 22 30
e 23 24
e 23 26
e 23 29
e 24 29
e 24 31
e 25 28
e 25 30
e 26 31
e 27 29
